\ENCODING=ISO-8859-1
\Problem name: ilog.cplex

Maximize
 obj: 877 x(0)#0 + 485 x(1)#1 + 931 x(2)#2 + 957 x(3)#3 + 693 x(4)#4
      + 451 x(5)#5 + 930 x(6)#6 + 406 x(7)#7 + 736 x(8)#8 + 668 x(9)#9
      + 846 x(10)#10 + 941 x(11)#11 + 795 x(12)#12 + 832 x(13)#13
      + 599 x(14)#14 + 703 x(15)#15 + 559 x(16)#16 + 711 x(17)#17
      + 876 x(18)#18 + 727 x(19)#19 + 703 x(20)#20 + 616 x(21)#21
      + 906 x(22)#22 + 686 x(23)#23 + 527 x(24)#24 + 1017 x(25)#25
      + 718 x(26)#26 + 473 x(27)#27 + 984 x(28)#28 + 925 x(29)#29
      + 839 x(30)#30 + 614 x(31)#31 + 803 x(32)#32 + 812 x(33)#33
      + 596 x(34)#34 + 759 x(35)#35 + 1061 x(36)#36 + 624 x(37)#37
      + 532 x(38)#38 + 906 x(39)#39 + 533 x(40)#40 + 318 x(41)#41
      + 683 x(42)#42 + 607 x(43)#43 + 924 x(44)#44 + 939 x(45)#45
      + 934 x(46)#46 + 739 x(47)#47 + 682 x(48)#48 + 753 x(49)#49
      + 524 x(50)#50 + 881 x(51)#51 + 994 x(52)#52 + 874 x(53)#53
      + 1056 x(54)#54 + 682 x(55)#55 + 867 x(56)#56 + 660 x(57)#57
      + 594 x(58)#58 + 848 x(59)#59 + 733 x(60)#60 + 924 x(61)#61
      + 447 x(62)#62 + 383 x(63)#63 + 602 x(64)#64 + 863 x(65)#65
      + 831 x(66)#66 + 986 x(67)#67 + 740 x(68)#68 + 607 x(69)#69
      + 826 x(70)#70 + 668 x(71)#71 + 585 x(72)#72 + 1005 x(73)#73
      + 926 x(74)#74 + 831 x(75)#75 + 608 x(76)#76 + 760 x(77)#77
      + 582 x(78)#78 + 794 x(79)#79 + 616 x(80)#80 + 896 x(81)#81
      + 564 x(82)#82 + 770 x(83)#83 + 918 x(84)#84 + 792 x(85)#85
      + 616 x(86)#86 + 771 x(87)#87 + 336 x(88)#88 + 900 x(89)#89
      + 749 x(90)#90 + 485 x(91)#91 + 758 x(92)#92 + 727 x(93)#93
      + 619 x(94)#94 + 725 x(95)#95 + 664 x(96)#96 + 883 x(97)#97
      + 883 x(98)#98 + 871 x(99)#99
Subject To
 c1:  504 x(0)#0 + 793 x(1)#1 + 417 x(2)#2 + 431 x(3)#3 + 998 x(4)#4
      + 431 x(5)#5 + 371 x(6)#6 + 636 x(7)#7 + 239 x(8)#8 + 361 x(9)#9
      + 408 x(10)#10 + 766 x(11)#11 + 184 x(12)#12 + 145 x(13)#13 + 66 x(14)#14
      + 900 x(15)#15 + 599 x(16)#16 + 362 x(17)#17 + 301 x(18)#18
      + 846 x(19)#19 + 103 x(20)#20 + 819 x(21)#21 + 382 x(22)#22
      + 917 x(23)#23 + 156 x(24)#24 + 977 x(25)#25 + 314 x(26)#26 + 68 x(27)#27
      + 822 x(28)#28 + 68 x(29)#29 + 896 x(30)#30 + 111 x(31)#31 + 93 x(32)#32
      + 757 x(33)#33 + 679 x(34)#34 + 22 x(35)#35 + 825 x(36)#36 + 781 x(37)#37
      + 165 x(38)#38 + 727 x(39)#39 + 750 x(40)#40 + 372 x(41)#41
      + 988 x(42)#42 + 254 x(43)#43 + 945 x(44)#44 + 995 x(45)#45 + 77 x(46)#46
      + 158 x(47)#47 + 222 x(48)#48 + 371 x(49)#49 + 482 x(50)#50
      + 325 x(51)#51 + 333 x(52)#52 + 674 x(53)#53 + 421 x(54)#54
      + 409 x(55)#55 + 480 x(56)#56 + 673 x(57)#57 + 665 x(58)#58
      + 516 x(59)#59 + 334 x(60)#60 + 454 x(61)#61 + 204 x(62)#62
      + 232 x(63)#63 + 12 x(64)#64 + 274 x(65)#65 + 705 x(66)#66 + 627 x(67)#67
      + 352 x(68)#68 + 858 x(69)#69 + 407 x(70)#70 + 401 x(71)#71
      + 357 x(72)#72 + 406 x(73)#73 + 556 x(74)#74 + 188 x(75)#75
      + 381 x(76)#76 + 924 x(77)#77 + 575 x(78)#78 + 188 x(79)#79
      + 178 x(80)#80 + 890 x(81)#81 + 696 x(82)#82 + 206 x(83)#83
      + 675 x(84)#84 + 293 x(85)#85 + 768 x(86)#86 + 679 x(87)#87
      + 376 x(88)#88 + 868 x(89)#89 + 63 x(90)#90 + 813 x(91)#91 + 548 x(92)#92
      + 275 x(93)#93 + 177 x(94)#94 + 521 x(95)#95 + 804 x(96)#96
      + 664 x(97)#97 + 904 x(98)#98 + 422 x(99)#99 <= 12201
 c2:  923 x(0)#0 + 48 x(1)#1 + 745 x(2)#2 + 889 x(3)#3 + 123 x(4)#4
      + 864 x(5)#5 + 142 x(6)#6 + 118 x(7)#7 + 643 x(8)#8 + 67 x(9)#9
      + 582 x(10)#10 + 966 x(11)#11 + 164 x(12)#12 + 206 x(13)#13
      + 406 x(14)#14 + 386 x(15)#15 + 130 x(16)#16 + 604 x(17)#17
      + 238 x(18)#18 + 487 x(19)#19 + 978 x(20)#20 + 778 x(21)#21
      + 980 x(22)#22 + 383 x(23)#23 + 424 x(24)#24 + 826 x(25)#25
      + 857 x(26)#26 + 634 x(27)#27 + 781 x(28)#28 + 952 x(29)#29 + 28 x(30)#30
      + 97 x(31)#31 + 499 x(32)#32 + 55 x(33)#33 + 322 x(34)#34 + 479 x(35)#35
      + 720 x(36)#36 + 81 x(37)#37 + 659 x(38)#38 + 573 x(39)#39 + 804 x(40)#40
      + 112 x(41)#41 + 691 x(42)#42 + 756 x(43)#43 + 947 x(44)#44
      + 543 x(45)#45 + 726 x(46)#46 + 346 x(47)#47 + 920 x(48)#48
      + 784 x(49)#49 + 840 x(50)#50 + 952 x(51)#51 + 960 x(52)#52 + 92 x(53)#53
      + 767 x(54)#54 + 89 x(55)#55 + 914 x(56)#56 + 188 x(57)#57 + 313 x(58)#58
      + 283 x(59)#59 + 167 x(60)#60 + 794 x(61)#61 + 13 x(62)#62 + 83 x(63)#63
      + 30 x(64)#64 + 366 x(65)#65 + 315 x(66)#66 + 354 x(67)#67 + 357 x(68)#68
      + 793 x(69)#69 + 131 x(70)#70 + 58 x(71)#71 + 390 x(72)#72 + 228 x(73)#73
      + 686 x(74)#74 + 254 x(75)#75 + 599 x(76)#76 + 294 x(77)#77
      + 878 x(78)#78 + 932 x(79)#79 + 959 x(80)#80 + 632 x(81)#81
      + 846 x(82)#82 + 788 x(83)#83 + 369 x(84)#84 + 361 x(85)#85
      + 657 x(86)#86 + 309 x(87)#87 + 123 x(88)#88 + 688 x(89)#89
      + 116 x(90)#90 + 308 x(91)#91 + 187 x(92)#92 + 549 x(93)#93
      + 906 x(94)#94 + 252 x(95)#95 + 158 x(96)#96 + 485 x(97)#97
      + 860 x(98)#98 + 524 x(99)#99 <= 12416
 c3:  80 x(0)#0 + 905 x(1)#1 + 997 x(2)#2 + 283 x(3)#3 + 851 x(4)#4
      + 206 x(5)#5 + 918 x(6)#6 + 212 x(7)#7 + 32 x(8)#8 + 483 x(9)#9
      + 734 x(10)#10 + 809 x(11)#11 + 614 x(12)#12 + 661 x(13)#13
      + 327 x(14)#14 + 65 x(15)#15 + 485 x(16)#16 + 841 x(17)#17 + 761 x(18)#18
      + 394 x(19)#19 + 377 x(20)#20 + 510 x(21)#21 + 96 x(22)#22 + 141 x(23)#23
      + 136 x(24)#24 + 209 x(25)#25 + 637 x(26)#26 + 451 x(27)#27
      + 442 x(28)#28 + 237 x(29)#29 + 892 x(30)#30 + 123 x(31)#31
      + 243 x(32)#32 + 25 x(33)#33 + 810 x(34)#34 + 705 x(35)#35 + 857 x(36)#36
      + 319 x(37)#37 + 700 x(38)#38 + 510 x(39)#39 + 462 x(40)#40 + 69 x(41)#41
      + 280 x(42)#42 + 545 x(43)#43 + 173 x(44)#44 + 702 x(45)#45
      + 317 x(46)#46 + 449 x(47)#47 + 732 x(48)#48 + 190 x(49)#49 + 73 x(50)#50
      + 135 x(51)#51 + 158 x(52)#52 + 783 x(53)#53 + 814 x(54)#54
      + 341 x(55)#55 + 686 x(56)#56 + 934 x(57)#57 + 11 x(58)#58 + 810 x(59)#59
      + 202 x(60)#60 + 461 x(61)#61 + 844 x(62)#62 + 345 x(63)#63
      + 805 x(64)#64 + 855 x(65)#65 + 769 x(66)#66 + 756 x(67)#67
      + 770 x(68)#68 + 390 x(69)#69 + 376 x(70)#70 + 315 x(71)#71
      + 945 x(72)#72 + 180 x(73)#73 + 146 x(74)#74 + 756 x(75)#75
      + 148 x(76)#76 + 139 x(77)#77 + 645 x(78)#78 + 962 x(79)#79 + 71 x(80)#80
      + 461 x(81)#81 + 231 x(82)#82 + 838 x(83)#83 + 937 x(84)#84 + 26 x(85)#85
      + 397 x(86)#86 + 294 x(87)#87 + 509 x(88)#88 + 53 x(89)#89 + 719 x(90)#90
      + 128 x(91)#91 + 607 x(92)#92 + 550 x(93)#93 + 412 x(94)#94 + 44 x(95)#95
      + 494 x(96)#96 + 806 x(97)#97 + 420 x(98)#98 + 844 x(99)#99 <= 11848
 c4:  870 x(0)#0 + 28 x(1)#1 + 785 x(2)#2 + 997 x(3)#3 + 610 x(4)#4
      + 345 x(5)#5 + 845 x(6)#6 + 731 x(7)#7 + 972 x(8)#8 + 605 x(9)#9
      + 106 x(10)#10 + 989 x(11)#11 + 301 x(12)#12 + 648 x(13)#13
      + 987 x(14)#14 + 14 x(15)#15 + 107 x(16)#16 + 240 x(17)#17 + 166 x(18)#18
      + 975 x(19)#19 + 885 x(20)#20 + 62 x(21)#21 + 863 x(22)#22 + 180 x(23)#23
      + 119 x(24)#24 + 447 x(25)#25 + 19 x(26)#26 + 365 x(27)#27 + 646 x(28)#28
      + 683 x(29)#29 + 257 x(30)#30 + 353 x(31)#31 + 427 x(32)#32
      + 160 x(33)#33 + 568 x(34)#34 + 442 x(35)#35 + 352 x(36)#36
      + 795 x(37)#37 + 768 x(38)#38 + 499 x(39)#39 + 299 x(40)#40
      + 587 x(41)#41 + 290 x(42)#42 + 739 x(43)#43 + 525 x(44)#44
      + 910 x(45)#45 + 511 x(46)#46 + 918 x(47)#47 + 514 x(48)#48
      + 208 x(49)#49 + 9 x(50)#50 + 487 x(51)#51 + 934 x(52)#52 + 624 x(53)#53
      + 892 x(54)#54 + 24 x(55)#55 + 820 x(56)#56 + 345 x(57)#57 + 658 x(58)#58
      + 349 x(59)#59 + 902 x(60)#60 + 1000 x(61)#61 + 585 x(62)#62
      + 875 x(63)#63 + 635 x(64)#64 + 730 x(65)#65 + 789 x(66)#66
      + 436 x(67)#67 + 211 x(68)#68 + 91 x(69)#69 + 956 x(70)#70 + 71 x(71)#71
      + 939 x(72)#72 + 518 x(73)#73 + 518 x(74)#74 + 546 x(75)#75
      + 921 x(76)#76 + 40 x(77)#77 + 313 x(78)#78 + 15 x(79)#79 + 464 x(80)#80
      + 35 x(81)#81 + 774 x(82)#82 + 296 x(83)#83 + 545 x(84)#84 + 803 x(85)#85
      + 133 x(86)#86 + 618 x(87)#87 + 549 x(88)#88 + 523 x(89)#89
      + 745 x(90)#90 + 626 x(91)#91 + 740 x(92)#92 + 365 x(93)#93
      + 891 x(94)#94 + 514 x(95)#95 + 372 x(96)#96 + 467 x(97)#97
      + 615 x(98)#98 + 353 x(99)#99 <= 13093
 c5:  763 x(0)#0 + 568 x(1)#1 + 561 x(2)#2 + 430 x(3)#3 + 459 x(4)#4
      + 221 x(5)#5 + 910 x(6)#6 + 339 x(7)#7 + 505 x(8)#8 + 765 x(9)#9
      + 322 x(10)#10 + 746 x(11)#11 + 179 x(12)#12 + 840 x(13)#13
      + 340 x(14)#14 + 152 x(15)#15 + 981 x(16)#16 + 832 x(17)#17 + 99 x(18)#18
      + 971 x(19)#19 + 762 x(20)#20 + 741 x(21)#21 + 799 x(22)#22
      + 421 x(23)#23 + 178 x(24)#24 + 89 x(25)#25 + 776 x(26)#26 + 582 x(27)#27
      + 208 x(28)#28 + 882 x(29)#29 + 639 x(30)#30 + 395 x(31)#31
      + 888 x(32)#32 + 123 x(33)#33 + 383 x(34)#34 + 304 x(35)#35
      + 812 x(36)#36 + 233 x(37)#37 + 777 x(38)#38 + 638 x(39)#39 + 59 x(40)#40
      + 982 x(41)#41 + 577 x(42)#42 + 61 x(43)#43 + 573 x(44)#44 + 296 x(45)#45
      + 84 x(46)#46 + 8 x(47)#47 + 274 x(48)#48 + 111 x(49)#49 + 110 x(50)#50
      + 763 x(51)#51 + 211 x(52)#52 + 616 x(53)#53 + 765 x(54)#54
      + 318 x(55)#55 + 71 x(56)#56 + 420 x(57)#57 + 720 x(58)#58 + 598 x(59)#59
      + 702 x(60)#60 + 40 x(61)#61 + 253 x(62)#62 + 656 x(63)#63 + 307 x(64)#64
      + 123 x(65)#65 + 333 x(66)#66 + 861 x(67)#67 + 404 x(68)#68
      + 177 x(69)#69 + 1000 x(70)#70 + 91 x(71)#71 + 513 x(72)#72
      + 986 x(73)#73 + 999 x(74)#74 + 585 x(75)#75 + 318 x(76)#76
      + 626 x(77)#77 + 414 x(78)#78 + 568 x(79)#79 + 64 x(80)#80 + 974 x(81)#81
      + 206 x(82)#82 + 187 x(83)#83 + 497 x(84)#84 + 11 x(85)#85 + 387 x(86)#86
      + 493 x(87)#87 + 115 x(88)#88 + 471 x(89)#89 + 618 x(90)#90
      + 828 x(91)#91 + 799 x(92)#92 + 556 x(93)#93 + 113 x(94)#94
      + 289 x(95)#95 + 811 x(96)#96 + 104 x(97)#97 + 740 x(98)#98
      + 780 x(99)#99 <= 12057
 c6:  637 x(0)#0 + 926 x(1)#1 + 187 x(2)#2 + 170 x(3)#3 + 562 x(4)#4
      + 10 x(5)#5 + 388 x(6)#6 + 454 x(7)#7 + 932 x(8)#8 + 302 x(9)#9
      + 697 x(10)#10 + 969 x(11)#11 + 295 x(12)#12 + 855 x(13)#13
      + 466 x(14)#14 + 873 x(15)#15 + 978 x(16)#16 + 575 x(17)#17
      + 905 x(18)#18 + 482 x(19)#19 + 543 x(20)#20 + 289 x(21)#21
      + 943 x(22)#22 + 47 x(23)#23 + 433 x(24)#24 + 831 x(25)#25 + 370 x(26)#26
      + 110 x(27)#27 + 496 x(28)#28 + 3 x(29)#29 + 43 x(30)#30 + 951 x(31)#31
      + 61 x(32)#32 + 671 x(33)#33 + 209 x(34)#34 + 707 x(35)#35 + 742 x(36)#36
      + 917 x(37)#37 + 727 x(38)#38 + 548 x(39)#39 + 465 x(40)#40
      + 117 x(41)#41 + 870 x(42)#42 + 401 x(43)#43 + 216 x(44)#44
      + 194 x(45)#45 + 155 x(46)#46 + 966 x(47)#47 + 936 x(48)#48
      + 275 x(49)#49 + 822 x(50)#50 + 413 x(51)#51 + 657 x(52)#52 + 91 x(53)#53
      + 351 x(54)#54 + 934 x(55)#55 + 462 x(56)#56 + 512 x(57)#57
      + 673 x(58)#58 + 455 x(59)#59 + 66 x(60)#60 + 387 x(61)#61 + 795 x(62)#62
      + 236 x(63)#63 + 918 x(64)#64 + 620 x(65)#65 + 203 x(66)#66
      + 894 x(67)#67 + 893 x(68)#68 + 507 x(69)#69 + 810 x(70)#70
      + 651 x(71)#71 + 115 x(72)#72 + 646 x(73)#73 + 597 x(74)#74
      + 417 x(75)#75 + 449 x(76)#76 + 758 x(77)#77 + 952 x(78)#78
      + 586 x(79)#79 + 106 x(80)#80 + 864 x(81)#81 + 907 x(82)#82
      + 541 x(83)#83 + 371 x(84)#84 + 28 x(85)#85 + 842 x(86)#86 + 451 x(87)#87
      + 197 x(88)#88 + 335 x(89)#89 + 701 x(90)#90 + 92 x(91)#91 + 993 x(92)#92
      + 297 x(93)#93 + 732 x(94)#94 + 245 x(95)#95 + 672 x(96)#96
      + 302 x(97)#97 + 569 x(98)#98 + 514 x(99)#99 <= 13132
 c7:  695 x(0)#0 + 517 x(1)#1 + 611 x(2)#2 + 363 x(3)#3 + 308 x(4)#4
      + 250 x(5)#5 + 269 x(6)#6 + 161 x(7)#7 + 388 x(8)#8 + 787 x(9)#9
      + 347 x(10)#10 + 293 x(11)#11 + 145 x(12)#12 + 573 x(13)#13
      + 423 x(14)#14 + 180 x(15)#15 + 132 x(16)#16 + 349 x(17)#17
      + 831 x(18)#18 + 532 x(19)#19 + 406 x(20)#20 + 53 x(21)#21 + 864 x(22)#22
      + 77 x(23)#23 + 358 x(24)#24 + 404 x(25)#25 + 166 x(26)#26 + 24 x(27)#27
      + 705 x(28)#28 + 260 x(29)#29 + 666 x(30)#30 + 713 x(31)#31
      + 133 x(32)#32 + 778 x(33)#33 + 218 x(34)#34 + 188 x(35)#35
      + 388 x(36)#36 + 72 x(37)#37 + 79 x(38)#38 + 673 x(39)#39 + 264 x(40)#40
      + 154 x(41)#41 + 242 x(42)#42 + 158 x(43)#43 + 699 x(44)#44 + 27 x(45)#45
      + 900 x(46)#46 + 537 x(47)#47 + 692 x(48)#48 + 541 x(49)#49 + 79 x(50)#50
      + 554 x(51)#51 + 777 x(52)#52 + 970 x(53)#53 + 367 x(54)#54
      + 362 x(55)#55 + 543 x(56)#56 + 781 x(57)#57 + 592 x(58)#58
      + 903 x(59)#59 + 626 x(60)#60 + 823 x(61)#61 + 423 x(62)#62
      + 226 x(63)#63 + 797 x(64)#64 + 595 x(65)#65 + 600 x(66)#66
      + 678 x(67)#67 + 385 x(68)#68 + 577 x(69)#69 + 483 x(70)#70
      + 281 x(71)#71 + 614 x(72)#72 + 667 x(73)#73 + 957 x(74)#74
      + 695 x(75)#75 + 802 x(76)#76 + 793 x(77)#77 + 592 x(78)#78
      + 411 x(79)#79 + 948 x(80)#80 + 724 x(81)#81 + 297 x(82)#82
      + 406 x(83)#83 + 454 x(84)#84 + 405 x(85)#85 + 381 x(86)#86
      + 723 x(87)#87 + 6 x(88)#88 + 203 x(89)#89 + 619 x(90)#90 + 880 x(91)#91
      + 732 x(92)#92 + 870 x(93)#93 + 264 x(94)#94 + 148 x(95)#95
      + 281 x(96)#96 + 439 x(97)#97 + 373 x(98)#98 + 521 x(99)#99 <= 11805
 c8:  556 x(0)#0 + 244 x(1)#1 + 897 x(2)#2 + 976 x(3)#3 + 580 x(4)#4
      + 533 x(5)#5 + 390 x(6)#6 + 463 x(7)#7 + 245 x(8)#8 + 527 x(9)#9
      + 323 x(10)#10 + 660 x(11)#11 + 26 x(12)#12 + 419 x(13)#13 + 239 x(14)#14
      + 414 x(15)#15 + 270 x(16)#16 + 766 x(17)#17 + 104 x(18)#18
      + 296 x(19)#19 + 42 x(20)#20 + 846 x(21)#21 + 967 x(22)#22 + 700 x(23)#23
      + 238 x(24)#24 + 834 x(25)#25 + 572 x(26)#26 + 169 x(27)#27
      + 321 x(28)#28 + 647 x(29)#29 + 33 x(30)#30 + 452 x(31)#31 + 78 x(32)#32
      + 801 x(33)#33 + 304 x(34)#34 + 40 x(35)#35 + 76 x(36)#36 + 128 x(37)#37
      + 619 x(38)#38 + 158 x(39)#39 + 972 x(40)#40 + 670 x(41)#41
      + 647 x(42)#42 + 570 x(43)#43 + 432 x(44)#44 + 81 x(45)#45 + 607 x(46)#46
      + 187 x(47)#47 + 48 x(48)#48 + 941 x(49)#49 + 769 x(50)#50 + 576 x(51)#51
      + 252 x(52)#52 + 519 x(53)#53 + 771 x(54)#54 + 619 x(55)#55
      + 584 x(56)#56 + 394 x(57)#57 + 69 x(58)#58 + 335 x(59)#59 + 419 x(60)#60
      + 26 x(61)#61 + 187 x(62)#62 + 185 x(63)#63 + 118 x(64)#64 + 601 x(65)#65
      + 880 x(66)#66 + 416 x(67)#67 + 621 x(68)#68 + 228 x(69)#69
      + 300 x(70)#70 + 523 x(71)#71 + 383 x(72)#72 + 445 x(73)#73 + 74 x(74)#74
      + 951 x(75)#75 + 741 x(76)#76 + 567 x(77)#77 + 217 x(78)#78 + 5 x(79)#79
      + 460 x(80)#80 + 372 x(81)#81 + 568 x(82)#82 + 653 x(83)#83
      + 770 x(84)#84 + 966 x(85)#85 + 281 x(86)#86 + 333 x(87)#87
      + 130 x(88)#88 + 318 x(89)#89 + 896 x(90)#90 + 288 x(91)#91
      + 920 x(92)#92 + 248 x(93)#93 + 92 x(94)#94 + 102 x(95)#95 + 228 x(96)#96
      + 244 x(97)#97 + 371 x(98)#98 + 335 x(99)#99 <= 10865
 c9:  807 x(0)#0 + 314 x(1)#1 + 275 x(2)#2 + 744 x(3)#3 + 566 x(4)#4
      + 629 x(5)#5 + 220 x(6)#6 + 273 x(7)#7 + 297 x(8)#8 + 668 x(9)#9
      + 535 x(10)#10 + 660 x(11)#11 + 242 x(12)#12 + 584 x(13)#13
      + 492 x(14)#14 + 206 x(15)#15 + 878 x(16)#16 + 634 x(17)#17
      + 622 x(18)#18 + 282 x(19)#19 + 461 x(20)#20 + 855 x(21)#21
      + 768 x(22)#22 + 794 x(23)#23 + 241 x(24)#24 + 922 x(25)#25
      + 420 x(26)#26 + 101 x(27)#27 + 184 x(28)#28 + 576 x(29)#29
      + 247 x(30)#30 + 463 x(31)#31 + 762 x(32)#32 + 498 x(33)#33
      + 494 x(34)#34 + 979 x(35)#35 + 834 x(36)#36 + 245 x(37)#37
      + 359 x(38)#38 + 833 x(39)#39 + 52 x(40)#40 + 41 x(41)#41 + 599 x(42)#42
      + 920 x(43)#43 + 978 x(44)#44 + 587 x(45)#45 + 494 x(46)#46 + 42 x(47)#47
      + 855 x(48)#48 + 67 x(49)#49 + 341 x(50)#50 + 346 x(51)#51 + 80 x(52)#52
      + 877 x(53)#53 + 891 x(54)#54 + 678 x(55)#55 + 637 x(56)#56
      + 592 x(57)#57 + 650 x(58)#58 + 820 x(59)#59 + 451 x(60)#60
      + 304 x(61)#61 + 245 x(62)#62 + 214 x(63)#63 + 222 x(64)#64
      + 291 x(65)#65 + 790 x(66)#66 + 134 x(67)#67 + 649 x(68)#68
      + 406 x(69)#69 + 865 x(70)#70 + 288 x(71)#71 + 567 x(72)#72
      + 581 x(73)#73 + 401 x(74)#74 + 993 x(75)#75 + 245 x(76)#76
      + 941 x(77)#77 + 558 x(78)#78 + 795 x(79)#79 + 357 x(80)#80
      + 513 x(81)#81 + 324 x(82)#82 + 917 x(83)#83 + 946 x(84)#84
      + 199 x(85)#85 + 202 x(86)#86 + 660 x(87)#87 + 132 x(88)#88
      + 664 x(89)#89 + 215 x(90)#90 + 109 x(91)#91 + 715 x(92)#92
      + 377 x(93)#93 + 829 x(94)#94 + 206 x(95)#95 + 228 x(96)#96
      + 141 x(97)#97 + 642 x(98)#98 + 87 x(99)#99 <= 12479
 c10: 469 x(0)#0 + 239 x(1)#1 + 538 x(2)#2 + 116 x(3)#3 + 632 x(4)#4
      + 281 x(5)#5 + 279 x(6)#6 + 599 x(7)#7 + 74 x(8)#8 + 292 x(9)#9
      + 468 x(10)#10 + 223 x(11)#11 + 808 x(12)#12 + 622 x(13)#13
      + 108 x(14)#14 + 363 x(15)#15 + 477 x(16)#16 + 493 x(17)#17
      + 205 x(18)#18 + 53 x(19)#19 + 126 x(20)#20 + 21 x(21)#21 + 891 x(22)#22
      + 22 x(23)#23 + 818 x(24)#24 + 69 x(25)#25 + 30 x(26)#26 + 573 x(27)#27
      + 891 x(28)#28 + 201 x(29)#29 + 643 x(30)#30 + 927 x(31)#31
      + 670 x(32)#32 + 656 x(33)#33 + 516 x(34)#34 + 694 x(35)#35
      + 953 x(36)#36 + 835 x(37)#37 + 215 x(38)#38 + 434 x(39)#39
      + 649 x(40)#40 + 3 x(41)#41 + 199 x(42)#42 + 911 x(43)#43 + 8 x(44)#44
      + 207 x(45)#45 + 876 x(46)#46 + 28 x(47)#47 + 9 x(48)#48 + 447 x(49)#49
      + 595 x(50)#50 + 223 x(51)#51 + 788 x(52)#52 + 404 x(53)#53
      + 333 x(54)#54 + 360 x(55)#55 + 823 x(56)#56 + 900 x(57)#57
      + 609 x(58)#58 + 116 x(59)#59 + 627 x(60)#60 + 183 x(61)#61 + 33 x(62)#62
      + 487 x(63)#63 + 546 x(64)#64 + 122 x(65)#65 + 357 x(66)#66
      + 454 x(67)#67 + 465 x(68)#68 + 574 x(69)#69 + 306 x(70)#70
      + 169 x(71)#71 + 378 x(72)#72 + 520 x(73)#73 + 528 x(74)#74
      + 572 x(75)#75 + 294 x(76)#76 + 22 x(77)#77 + 157 x(78)#78 + 231 x(79)#79
      + 868 x(80)#80 + 535 x(81)#81 + 101 x(82)#82 + 203 x(83)#83
      + 660 x(84)#84 + 495 x(85)#85 + 383 x(86)#86 + 667 x(87)#87
      + 483 x(88)#88 + 709 x(89)#89 + 54 x(90)#90 + 460 x(91)#91 + 460 x(92)#92
      + 573 x(93)#93 + 164 x(94)#94 + 805 x(95)#95 + 154 x(96)#96
      + 884 x(97)#97 + 190 x(98)#98 + 724 x(99)#99 <= 10652
Bounds
 0 <= x(0)#0 <= 1
 0 <= x(1)#1 <= 1
 0 <= x(2)#2 <= 1
 0 <= x(3)#3 <= 1
 0 <= x(4)#4 <= 1
 0 <= x(5)#5 <= 1
 0 <= x(6)#6 <= 1
 0 <= x(7)#7 <= 1
 0 <= x(8)#8 <= 1
 0 <= x(9)#9 <= 1
 0 <= x(10)#10 <= 1
 0 <= x(11)#11 <= 1
 0 <= x(12)#12 <= 1
 0 <= x(13)#13 <= 1
 0 <= x(14)#14 <= 1
 0 <= x(15)#15 <= 1
 0 <= x(16)#16 <= 1
 0 <= x(17)#17 <= 1
 0 <= x(18)#18 <= 1
 0 <= x(19)#19 <= 1
 0 <= x(20)#20 <= 1
 0 <= x(21)#21 <= 1
 0 <= x(22)#22 <= 1
 0 <= x(23)#23 <= 1
 0 <= x(24)#24 <= 1
 0 <= x(25)#25 <= 1
 0 <= x(26)#26 <= 1
 0 <= x(27)#27 <= 1
 0 <= x(28)#28 <= 1
 0 <= x(29)#29 <= 1
 0 <= x(30)#30 <= 1
 0 <= x(31)#31 <= 1
 0 <= x(32)#32 <= 1
 0 <= x(33)#33 <= 1
 0 <= x(34)#34 <= 1
 0 <= x(35)#35 <= 1
 0 <= x(36)#36 <= 1
 0 <= x(37)#37 <= 1
 0 <= x(38)#38 <= 1
 0 <= x(39)#39 <= 1
 0 <= x(40)#40 <= 1
 0 <= x(41)#41 <= 1
 0 <= x(42)#42 <= 1
 0 <= x(43)#43 <= 1
 0 <= x(44)#44 <= 1
 0 <= x(45)#45 <= 1
 0 <= x(46)#46 <= 1
 0 <= x(47)#47 <= 1
 0 <= x(48)#48 <= 1
 0 <= x(49)#49 <= 1
 0 <= x(50)#50 <= 1
 0 <= x(51)#51 <= 1
 0 <= x(52)#52 <= 1
 0 <= x(53)#53 <= 1
 0 <= x(54)#54 <= 1
 0 <= x(55)#55 <= 1
 0 <= x(56)#56 <= 1
 0 <= x(57)#57 <= 1
 0 <= x(58)#58 <= 1
 0 <= x(59)#59 <= 1
 0 <= x(60)#60 <= 1
 0 <= x(61)#61 <= 1
 0 <= x(62)#62 <= 1
 0 <= x(63)#63 <= 1
 0 <= x(64)#64 <= 1
 0 <= x(65)#65 <= 1
 0 <= x(66)#66 <= 1
 0 <= x(67)#67 <= 1
 0 <= x(68)#68 <= 1
 0 <= x(69)#69 <= 1
 0 <= x(70)#70 <= 1
 0 <= x(71)#71 <= 1
 0 <= x(72)#72 <= 1
 0 <= x(73)#73 <= 1
 0 <= x(74)#74 <= 1
 0 <= x(75)#75 <= 1
 0 <= x(76)#76 <= 1
 0 <= x(77)#77 <= 1
 0 <= x(78)#78 <= 1
 0 <= x(79)#79 <= 1
 0 <= x(80)#80 <= 1
 0 <= x(81)#81 <= 1
 0 <= x(82)#82 <= 1
 0 <= x(83)#83 <= 1
 0 <= x(84)#84 <= 1
 0 <= x(85)#85 <= 1
 0 <= x(86)#86 <= 1
 0 <= x(87)#87 <= 1
 0 <= x(88)#88 <= 1
 0 <= x(89)#89 <= 1
 0 <= x(90)#90 <= 1
 0 <= x(91)#91 <= 1
 0 <= x(92)#92 <= 1
 0 <= x(93)#93 <= 1
 0 <= x(94)#94 <= 1
 0 <= x(95)#95 <= 1
 0 <= x(96)#96 <= 1
 0 <= x(97)#97 <= 1
 0 <= x(98)#98 <= 1
 0 <= x(99)#99 <= 1
Generals
 x(0)#0  x(1)#1  x(2)#2  x(3)#3  x(4)#4  x(5)#5  x(6)#6  x(7)#7  x(8)#8 
 x(9)#9  x(10)#10  x(11)#11  x(12)#12  x(13)#13  x(14)#14  x(15)#15  x(16)#16 
 x(17)#17  x(18)#18  x(19)#19  x(20)#20  x(21)#21  x(22)#22  x(23)#23 
 x(24)#24  x(25)#25  x(26)#26  x(27)#27  x(28)#28  x(29)#29  x(30)#30 
 x(31)#31  x(32)#32  x(33)#33  x(34)#34  x(35)#35  x(36)#36  x(37)#37 
 x(38)#38  x(39)#39  x(40)#40  x(41)#41  x(42)#42  x(43)#43  x(44)#44 
 x(45)#45  x(46)#46  x(47)#47  x(48)#48  x(49)#49  x(50)#50  x(51)#51 
 x(52)#52  x(53)#53  x(54)#54  x(55)#55  x(56)#56  x(57)#57  x(58)#58 
 x(59)#59  x(60)#60  x(61)#61  x(62)#62  x(63)#63  x(64)#64  x(65)#65 
 x(66)#66  x(67)#67  x(68)#68  x(69)#69  x(70)#70  x(71)#71  x(72)#72 
 x(73)#73  x(74)#74  x(75)#75  x(76)#76  x(77)#77  x(78)#78  x(79)#79 
 x(80)#80  x(81)#81  x(82)#82  x(83)#83  x(84)#84  x(85)#85  x(86)#86 
 x(87)#87  x(88)#88  x(89)#89  x(90)#90  x(91)#91  x(92)#92  x(93)#93 
 x(94)#94  x(95)#95  x(96)#96  x(97)#97  x(98)#98  x(99)#99 
End
